NAME deposition_srl_ilp
* Max problem is converted into Min one
ROWS
 N  OBJ
 L  constraint1_1240
 L  constraint1_1241
 L  constraint1_1248
 L  constraint2_1240
 L  constraint2_1241
 L  constraint2_1242
 L  constraint2_1243
COLUMNS
    MARKER    'MARKER'                 'INTORG'
    Z_124_0_0  OBJ       -2.0087131331315863e-04
    Z_124_0_0  constraint1_1240  1
    Z_124_0_0  constraint2_1240  1
    Z_124_0_1  OBJ       -1.3221375480542963e-03
    Z_124_0_1  constraint1_1240  1
    Z_124_0_1  constraint2_1241  1
    Z_124_0_2  OBJ       -5.6633947137340102e-01
    Z_124_0_2  constraint1_1240  1
    Z_124_0_2  constraint2_1242  1
    Z_124_0_3  OBJ       -1.4384481950269312e-03
    Z_124_0_3  constraint1_1240  1
    Z_124_0_3  constraint2_1243  1
    Z_124_0_4  OBJ       -3.3069907157020456e-01
    Z_124_0_4  constraint1_1240  1
    Z_124_1_0  OBJ       -4.4656126357551828e-03
    Z_124_1_0  constraint1_1241  1
    Z_124_1_0  constraint2_1240  1
    Z_124_1_1  OBJ       -9.9015601335087980e-02
    Z_124_1_1  constraint1_1241  1
    Z_124_1_1  constraint2_1241  1
    Z_124_1_2  OBJ       -3.3155557202613345e-02
    Z_124_1_2  constraint1_1241  1
    Z_124_1_2  constraint2_1242  1
    Z_124_1_3  OBJ       -1.4335657534282739e-02
    Z_124_1_3  constraint1_1241  1
    Z_124_1_3  constraint2_1243  1
    Z_124_1_4  OBJ       -7.4902757129226083e-01
    Z_124_1_4  constraint1_1241  1
    Z_124_8_0  OBJ       -2.0087131331315863e-04
    Z_124_8_0  constraint1_1248  1
    Z_124_8_0  constraint2_1240  1
    Z_124_8_1  OBJ       -1.3221375480542963e-03
    Z_124_8_1  constraint1_1248  1
    Z_124_8_1  constraint2_1241  1
    Z_124_8_2  OBJ       -5.6633947137340102e-01
    Z_124_8_2  constraint1_1248  1
    Z_124_8_2  constraint2_1242  1
    Z_124_8_3  OBJ       -1.4384481950269312e-03
    Z_124_8_3  constraint1_1248  1
    Z_124_8_3  constraint2_1243  1
    Z_124_8_4  OBJ       -3.3069907157020456e-01
    Z_124_8_4  constraint1_1248  1
    MARKER    'MARKER'                 'INTEND'
RHS
    RHS1      constraint1_1240  1
    RHS1      constraint1_1241  1
    RHS1      constraint1_1248  1
    RHS1      constraint2_1240  1
    RHS1      constraint2_1241  1
    RHS1      constraint2_1242  1
    RHS1      constraint2_1243  1
BOUNDS
 UP BND1      Z_124_0_0  1
 UP BND1      Z_124_0_1  1
 UP BND1      Z_124_0_2  1
 UP BND1      Z_124_0_3  1
 UP BND1      Z_124_0_4  1
 UP BND1      Z_124_1_0  1
 UP BND1      Z_124_1_1  1
 UP BND1      Z_124_1_2  1
 UP BND1      Z_124_1_3  1
 UP BND1      Z_124_1_4  1
 UP BND1      Z_124_8_0  1
 UP BND1      Z_124_8_1  1
 UP BND1      Z_124_8_2  1
 UP BND1      Z_124_8_3  1
 UP BND1      Z_124_8_4  1
ENDATA
